p edge 1559 1479
e 1 2
e 1 3
e 1 4
e 1 5
e 1 6
e 1 7
e 1 8
e 1 9
e 1 10
e 1 11
e 1 12
e 1 13
e 1 14
e 1 15
e 1 16
e 1 17
e 1 18
e 19 20
e 19 21
e 19 22
e 19 23
e 19 24
e 19 25
e 19 26
e 19 27
e 19 28
e 19 29
e 19 30
e 19 31
e 19 32
e 19 33
e 34 35
e 34 36
e 34 37
e 34 38
e 34 39
e 34 40
e 34 41
e 34 42
e 34 43
e 34 44
e 34 45
e 34 46
e 34 47
e 34 48
e 34 49
e 50 51
e 50 52
e 50 53
e 50 54
e 50 55
e 50 56
e 50 57
e 50 58
e 50 59
e 50 60
e 50 61
e 50 62
e 50 63
e 50 64
e 50 65
e 50 66
e 50 67
e 50 68
e 50 69
e 70 71
e 70 72
e 70 73
e 70 74
e 70 75
e 70 76
e 70 77
e 70 78
e 70 79
e 70 80
e 70 81
e 70 82
e 70 83
e 70 84
e 70 85
e 86 87
e 86 88
e 86 89
e 86 90
e 86 91
e 86 92
e 86 93
e 86 94
e 86 95
e 86 96
e 97 98
e 97 99
e 97 100
e 97 101
e 97 102
e 97 103
e 97 104
e 97 105
e 97 106
e 97 107
e 97 108
e 97 109
e 97 110
e 97 111
e 97 112
e 97 113
e 97 114
e 115 116
e 115 117
e 115 118
e 115 119
e 115 120
e 115 121
e 115 122
e 115 123
e 115 124
e 115 125
e 115 126
e 115 127
e 115 128
e 115 129
e 115 130
e 115 131
e 115 132
e 115 133
e 115 134
e 115 135
e 115 136
e 115 137
e 115 138
e 115 139
e 115 140
e 141 142
e 141 143
e 141 144
e 141 145
e 141 146
e 141 147
e 141 148
e 141 149
e 141 150
e 141 151
e 141 152
e 141 153
e 141 154
e 141 155
e 141 156
e 141 157
e 141 158
e 141 159
e 141 160
e 141 161
e 141 162
e 141 163
e 141 164
e 141 165
e 141 166
e 167 168
e 167 169
e 167 170
e 167 171
e 167 172
e 167 173
e 167 174
e 167 175
e 167 176
e 167 177
e 167 178
e 167 179
e 167 180
e 167 181
e 167 182
e 183 184
e 183 185
e 183 186
e 183 187
e 183 188
e 183 189
e 183 190
e 183 191
e 183 192
e 183 193
e 183 194
e 183 195
e 183 196
e 183 197
e 183 198
e 199 200
e 199 201
e 199 202
e 199 203
e 199 204
e 199 205
e 199 206
e 199 207
e 199 208
e 199 209
e 199 210
e 199 211
e 199 212
e 199 213
e 199 214
e 199 215
e 199 216
e 199 217
e 199 218
e 199 219
e 199 220
e 199 221
e 222 223
e 222 224
e 222 225
e 222 226
e 222 227
e 222 228
e 222 229
e 222 230
e 222 231
e 222 232
e 222 233
e 222 234
e 222 235
e 222 236
e 222 237
e 222 238
e 222 239
e 222 240
e 222 241
e 222 242
e 222 243
e 222 244
e 222 245
e 222 246
e 222 247
e 222 248
e 222 249
e 250 251
e 250 252
e 250 253
e 250 254
e 250 255
e 250 256
e 250 257
e 250 258
e 250 259
e 250 260
e 261 262
e 261 263
e 261 264
e 261 265
e 261 266
e 261 267
e 261 268
e 261 269
e 261 270
e 261 271
e 261 272
e 261 273
e 261 274
e 261 275
e 261 276
e 261 277
e 261 278
e 261 279
e 261 280
e 261 281
e 261 282
e 261 283
e 261 284
e 261 285
e 261 286
e 261 287
e 288 289
e 288 290
e 288 291
e 288 292
e 288 293
e 288 294
e 288 295
e 288 296
e 288 297
e 288 298
e 288 299
e 288 300
e 288 301
e 288 302
e 288 303
e 288 304
e 288 305
e 288 306
e 288 307
e 288 308
e 288 309
e 288 310
e 288 311
e 288 312
e 313 314
e 313 315
e 313 316
e 313 317
e 313 318
e 313 319
e 313 320
e 313 321
e 313 322
e 313 323
e 313 324
e 313 325
e 313 326
e 313 327
e 313 328
e 329 330
e 329 331
e 329 332
e 329 333
e 329 334
e 329 335
e 329 336
e 329 337
e 329 338
e 329 339
e 329 340
e 329 341
e 329 342
e 329 343
e 329 344
e 329 345
e 329 346
e 329 347
e 329 348
e 329 349
e 329 350
e 351 352
e 351 353
e 351 354
e 351 355
e 351 356
e 351 357
e 351 358
e 351 359
e 351 360
e 351 361
e 351 362
e 351 363
e 351 364
e 351 365
e 351 366
e 351 367
e 351 368
e 351 369
e 351 370
e 371 372
e 371 373
e 371 374
e 371 375
e 371 376
e 371 377
e 371 378
e 371 379
e 371 380
e 371 381
e 371 382
e 371 383
e 371 384
e 371 385
e 371 386
e 371 387
e 371 388
e 371 389
e 371 390
e 391 392
e 391 393
e 391 394
e 391 395
e 391 396
e 391 397
e 391 398
e 391 399
e 391 400
e 391 401
e 391 402
e 391 403
e 391 404
e 391 405
e 391 406
e 391 407
e 391 408
e 409 410
e 409 411
e 409 412
e 409 413
e 409 414
e 409 415
e 409 416
e 409 417
e 409 418
e 409 419
e 409 420
e 409 421
e 409 422
e 409 423
e 409 424
e 409 425
e 409 426
e 409 427
e 409 428
e 409 429
e 409 430
e 409 431
e 409 432
e 409 433
e 409 434
e 409 435
e 409 436
e 409 437
e 438 439
e 438 440
e 438 441
e 438 442
e 438 443
e 438 444
e 438 445
e 438 446
e 438 447
e 438 448
e 449 450
e 449 451
e 449 452
e 449 453
e 449 454
e 449 455
e 449 456
e 449 457
e 449 458
e 449 459
e 449 460
e 449 461
e 449 462
e 449 463
e 449 464
e 465 466
e 465 467
e 465 468
e 465 469
e 465 470
e 465 471
e 465 472
e 465 473
e 465 474
e 465 475
e 465 476
e 477 478
e 477 479
e 477 480
e 477 481
e 477 482
e 477 483
e 477 484
e 477 485
e 477 486
e 477 487
e 477 488
e 477 489
e 477 490
e 477 491
e 477 492
e 493 494
e 493 495
e 493 496
e 493 497
e 493 498
e 493 499
e 493 500
e 493 501
e 493 502
e 493 503
e 493 504
e 493 505
e 493 506
e 493 507
e 493 508
e 493 509
e 493 510
e 511 512
e 511 513
e 511 514
e 511 515
e 511 516
e 511 517
e 511 518
e 511 519
e 511 520
e 511 521
e 511 522
e 511 523
e 511 524
e 511 525
e 511 526
e 511 527
e 511 528
e 511 529
e 511 530
e 511 531
e 511 532
e 511 533
e 511 534
e 511 535
e 536 537
e 536 538
e 536 539
e 536 540
e 536 541
e 536 542
e 536 543
e 536 544
e 536 545
e 536 546
e 536 547
e 536 548
e 536 549
e 536 550
e 536 551
e 536 552
e 536 553
e 536 554
e 536 555
e 536 556
e 536 557
e 536 558
e 536 559
e 536 560
e 536 561
e 536 562
e 536 563
e 536 564
e 536 565
e 566 567
e 566 568
e 566 569
e 566 570
e 566 571
e 566 572
e 566 573
e 566 574
e 566 575
e 566 576
e 566 577
e 566 578
e 566 579
e 566 580
e 566 581
e 566 582
e 566 583
e 584 585
e 584 586
e 584 587
e 584 588
e 584 589
e 584 590
e 584 591
e 584 592
e 584 593
e 584 594
e 584 595
e 596 597
e 596 598
e 596 599
e 596 600
e 596 601
e 596 602
e 596 603
e 596 604
e 596 605
e 596 606
e 596 607
e 596 608
e 596 609
e 596 610
e 596 611
e 612 613
e 612 614
e 612 615
e 612 616
e 612 617
e 612 618
e 612 619
e 612 620
e 612 621
e 612 622
e 612 623
e 612 624
e 612 625
e 612 626
e 612 627
e 612 628
e 612 629
e 612 630
e 612 631
e 612 632
e 612 633
e 634 635
e 634 636
e 634 637
e 634 638
e 634 639
e 634 640
e 634 641
e 634 642
e 634 643
e 634 644
e 634 645
e 646 647
e 646 648
e 646 649
e 646 650
e 646 651
e 646 652
e 646 653
e 646 654
e 646 655
e 646 656
e 646 657
e 646 658
e 646 659
e 646 660
e 646 661
e 646 662
e 646 663
e 646 664
e 646 665
e 646 666
e 646 667
e 646 668
e 669 670
e 669 671
e 669 672
e 669 673
e 669 674
e 669 675
e 669 676
e 669 677
e 669 678
e 669 679
e 669 680
e 669 681
e 669 682
e 669 683
e 669 684
e 669 685
e 669 686
e 669 687
e 669 688
e 669 689
e 669 690
e 669 691
e 669 692
e 669 693
e 669 694
e 669 695
e 669 696
e 669 697
e 698 699
e 698 700
e 698 701
e 698 702
e 698 703
e 698 704
e 698 705
e 698 706
e 698 707
e 698 708
e 698 709
e 698 710
e 698 711
e 698 712
e 698 713
e 714 715
e 714 716
e 714 717
e 714 718
e 714 719
e 714 720
e 714 721
e 714 722
e 714 723
e 714 724
e 714 725
e 714 726
e 714 727
e 714 728
e 714 729
e 714 730
e 714 731
e 714 732
e 714 733
e 714 734
e 714 735
e 714 736
e 714 737
e 714 738
e 714 739
e 714 740
e 714 741
e 714 742
e 743 744
e 743 745
e 743 746
e 743 747
e 743 748
e 743 749
e 743 750
e 743 751
e 743 752
e 743 753
e 743 754
e 755 756
e 755 757
e 755 758
e 755 759
e 755 760
e 755 761
e 755 762
e 755 763
e 755 764
e 755 765
e 755 766
e 755 767
e 755 768
e 755 769
e 755 770
e 755 771
e 755 772
e 755 773
e 755 774
e 755 775
e 755 776
e 777 778
e 777 779
e 777 780
e 777 781
e 777 782
e 777 783
e 777 784
e 777 785
e 777 786
e 777 787
e 777 788
e 777 789
e 777 790
e 777 791
e 777 792
e 793 794
e 793 795
e 793 796
e 793 797
e 793 798
e 793 799
e 793 800
e 793 801
e 793 802
e 793 803
e 793 804
e 793 805
e 793 806
e 793 807
e 793 808
e 793 809
e 793 810
e 793 811
e 793 812
e 793 813
e 793 814
e 793 815
e 793 816
e 793 817
e 793 818
e 793 819
e 793 820
e 821 822
e 821 823
e 821 824
e 821 825
e 821 826
e 821 827
e 821 828
e 821 829
e 821 830
e 821 831
e 821 832
e 821 833
e 821 834
e 821 835
e 821 836
e 821 837
e 821 838
e 821 839
e 821 840
e 821 841
e 821 842
e 821 843
e 821 844
e 845 846
e 845 847
e 845 848
e 845 849
e 845 850
e 845 851
e 845 852
e 845 853
e 845 854
e 845 855
e 845 856
e 845 857
e 845 858
e 845 859
e 845 860
e 845 861
e 845 862
e 845 863
e 845 864
e 865 866
e 865 867
e 865 868
e 865 869
e 865 870
e 865 871
e 865 872
e 865 873
e 865 874
e 865 875
e 865 876
e 865 877
e 865 878
e 865 879
e 865 880
e 865 881
e 865 882
e 865 883
e 865 884
e 865 885
e 865 886
e 865 887
e 865 888
e 865 889
e 865 890
e 891 892
e 891 893
e 891 894
e 891 895
e 891 896
e 891 897
e 891 898
e 891 899
e 891 900
e 891 901
e 891 902
e 891 903
e 891 904
e 891 905
e 891 906
e 891 907
e 891 908
e 891 909
e 891 910
e 891 911
e 912 913
e 912 914
e 912 915
e 912 916
e 912 917
e 912 918
e 912 919
e 912 920
e 912 921
e 912 922
e 912 923
e 912 924
e 912 925
e 912 926
e 927 928
e 927 929
e 927 930
e 927 931
e 927 932
e 927 933
e 927 934
e 927 935
e 927 936
e 927 937
e 927 938
e 927 939
e 927 940
e 927 941
e 927 942
e 927 943
e 927 944
e 927 945
e 946 947
e 946 948
e 946 949
e 946 950
e 946 951
e 946 952
e 946 953
e 946 954
e 946 955
e 946 956
e 946 957
e 946 958
e 946 959
e 946 960
e 946 961
e 946 962
e 946 963
e 946 964
e 946 965
e 966 967
e 966 968
e 966 969
e 966 970
e 966 971
e 966 972
e 966 973
e 966 974
e 966 975
e 966 976
e 966 977
e 966 978
e 966 979
e 966 980
e 966 981
e 966 982
e 966 983
e 966 984
e 966 985
e 966 986
e 966 987
e 966 988
e 966 989
e 966 990
e 966 991
e 966 992
e 966 993
e 966 994
e 995 996
e 995 997
e 995 998
e 995 999
e 995 1000
e 995 1001
e 995 1002
e 995 1003
e 995 1004
e 995 1005
e 995 1006
e 1007 1008
e 1007 1009
e 1007 1010
e 1007 1011
e 1007 1012
e 1007 1013
e 1007 1014
e 1007 1015
e 1007 1016
e 1007 1017
e 1018 1019
e 1018 1020
e 1018 1021
e 1018 1022
e 1018 1023
e 1018 1024
e 1018 1025
e 1018 1026
e 1018 1027
e 1018 1028
e 1018 1029
e 1018 1030
e 1018 1031
e 1018 1032
e 1018 1033
e 1018 1034
e 1018 1035
e 1018 1036
e 1018 1037
e 1018 1038
e 1018 1039
e 1018 1040
e 1041 1042
e 1041 1043
e 1041 1044
e 1041 1045
e 1041 1046
e 1041 1047
e 1041 1048
e 1041 1049
e 1041 1050
e 1041 1051
e 1041 1052
e 1041 1053
e 1041 1054
e 1041 1055
e 1041 1056
e 1041 1057
e 1041 1058
e 1041 1059
e 1041 1060
e 1041 1061
e 1041 1062
e 1063 1064
e 1063 1065
e 1063 1066
e 1063 1067
e 1063 1068
e 1063 1069
e 1063 1070
e 1063 1071
e 1063 1072
e 1063 1073
e 1063 1074
e 1063 1075
e 1063 1076
e 1063 1077
e 1063 1078
e 1063 1079
e 1063 1080
e 1063 1081
e 1063 1082
e 1083 1084
e 1083 1085
e 1083 1086
e 1083 1087
e 1083 1088
e 1083 1089
e 1083 1090
e 1083 1091
e 1083 1092
e 1083 1093
e 1083 1094
e 1083 1095
e 1083 1096
e 1083 1097
e 1083 1098
e 1083 1099
e 1083 1100
e 1083 1101
e 1083 1102
e 1083 1103
e 1083 1104
e 1083 1105
e 1083 1106
e 1083 1107
e 1083 1108
e 1083 1109
e 1110 1111
e 1110 1112
e 1110 1113
e 1110 1114
e 1110 1115
e 1110 1116
e 1110 1117
e 1110 1118
e 1110 1119
e 1110 1120
e 1110 1121
e 1110 1122
e 1110 1123
e 1110 1124
e 1110 1125
e 1110 1126
e 1110 1127
e 1110 1128
e 1110 1129
e 1110 1130
e 1110 1131
e 1110 1132
e 1133 1134
e 1133 1135
e 1133 1136
e 1133 1137
e 1133 1138
e 1133 1139
e 1133 1140
e 1133 1141
e 1133 1142
e 1133 1143
e 1133 1144
e 1133 1145
e 1133 1146
e 1133 1147
e 1133 1148
e 1133 1149
e 1133 1150
e 1133 1151
e 1133 1152
e 1133 1153
e 1133 1154
e 1133 1155
e 1133 1156
e 1133 1157
e 1158 1159
e 1158 1160
e 1158 1161
e 1158 1162
e 1158 1163
e 1158 1164
e 1158 1165
e 1158 1166
e 1158 1167
e 1158 1168
e 1158 1169
e 1158 1170
e 1158 1171
e 1158 1172
e 1158 1173
e 1158 1174
e 1158 1175
e 1158 1176
e 1158 1177
e 1178 1179
e 1178 1180
e 1178 1181
e 1178 1182
e 1178 1183
e 1178 1184
e 1178 1185
e 1178 1186
e 1178 1187
e 1178 1188
e 1178 1189
e 1178 1190
e 1178 1191
e 1178 1192
e 1178 1193
e 1178 1194
e 1178 1195
e 1196 1197
e 1196 1198
e 1196 1199
e 1196 1200
e 1196 1201
e 1196 1202
e 1196 1203
e 1196 1204
e 1196 1205
e 1196 1206
e 1196 1207
e 1196 1208
e 1196 1209
e 1196 1210
e 1211 1212
e 1211 1213
e 1211 1214
e 1211 1215
e 1211 1216
e 1211 1217
e 1211 1218
e 1211 1219
e 1211 1220
e 1211 1221
e 1211 1222
e 1211 1223
e 1211 1224
e 1211 1225
e 1211 1226
e 1211 1227
e 1211 1228
e 1211 1229
e 1211 1230
e 1211 1231
e 1211 1232
e 1211 1233
e 1211 1234
e 1211 1235
e 1211 1236
e 1211 1237
e 1211 1238
e 1239 1240
e 1239 1241
e 1239 1242
e 1239 1243
e 1239 1244
e 1239 1245
e 1239 1246
e 1239 1247
e 1239 1248
e 1239 1249
e 1239 1250
e 1239 1251
e 1252 1253
e 1252 1254
e 1252 1255
e 1252 1256
e 1252 1257
e 1252 1258
e 1252 1259
e 1252 1260
e 1252 1261
e 1252 1262
e 1252 1263
e 1252 1264
e 1252 1265
e 1252 1266
e 1252 1267
e 1252 1268
e 1269 1270
e 1269 1271
e 1269 1272
e 1269 1273
e 1269 1274
e 1269 1275
e 1269 1276
e 1269 1277
e 1269 1278
e 1269 1279
e 1269 1280
e 1269 1281
e 1269 1282
e 1269 1283
e 1284 1285
e 1284 1286
e 1284 1287
e 1284 1288
e 1284 1289
e 1284 1290
e 1284 1291
e 1284 1292
e 1284 1293
e 1284 1294
e 1284 1295
e 1284 1296
e 1297 1298
e 1297 1299
e 1297 1300
e 1297 1301
e 1297 1302
e 1297 1303
e 1297 1304
e 1297 1305
e 1297 1306
e 1297 1307
e 1297 1308
e 1297 1309
e 1297 1310
e 1297 1311
e 1297 1312
e 1297 1313
e 1297 1314
e 1297 1315
e 1297 1316
e 1297 1317
e 1297 1318
e 1297 1319
e 1320 1321
e 1320 1322
e 1320 1323
e 1320 1324
e 1320 1325
e 1320 1326
e 1320 1327
e 1320 1328
e 1320 1329
e 1320 1330
e 1320 1331
e 1320 1332
e 1320 1333
e 1320 1334
e 1320 1335
e 1320 1336
e 1320 1337
e 1320 1338
e 1320 1339
e 1320 1340
e 1320 1341
e 1320 1342
e 1320 1343
e 1344 1345
e 1344 1346
e 1344 1347
e 1344 1348
e 1344 1349
e 1344 1350
e 1344 1351
e 1344 1352
e 1344 1353
e 1344 1354
e 1344 1355
e 1344 1356
e 1344 1357
e 1344 1358
e 1344 1359
e 1344 1360
e 1361 1362
e 1361 1363
e 1361 1364
e 1361 1365
e 1361 1366
e 1361 1367
e 1361 1368
e 1361 1369
e 1361 1370
e 1361 1371
e 1361 1372
e 1373 1374
e 1373 1375
e 1373 1376
e 1373 1377
e 1373 1378
e 1373 1379
e 1373 1380
e 1373 1381
e 1373 1382
e 1373 1383
e 1384 1385
e 1384 1386
e 1384 1387
e 1384 1388
e 1384 1389
e 1384 1390
e 1384 1391
e 1384 1392
e 1384 1393
e 1384 1394
e 1384 1395
e 1384 1396
e 1384 1397
e 1384 1398
e 1384 1399
e 1384 1400
e 1384 1401
e 1384 1402
e 1384 1403
e 1384 1404
e 1384 1405
e 1384 1406
e 1384 1407
e 1384 1408
e 1409 1410
e 1409 1411
e 1409 1412
e 1409 1413
e 1409 1414
e 1409 1415
e 1409 1416
e 1409 1417
e 1409 1418
e 1409 1419
e 1409 1420
e 1409 1421
e 1409 1422
e 1409 1423
e 1409 1424
e 1409 1425
e 1409 1426
e 1427 1428
e 1427 1429
e 1427 1430
e 1427 1431
e 1427 1432
e 1427 1433
e 1427 1434
e 1427 1435
e 1427 1436
e 1427 1437
e 1427 1438
e 1427 1439
e 1427 1440
e 1427 1441
e 1427 1442
e 1427 1443
e 1427 1444
e 1427 1445
e 1427 1446
e 1427 1447
e 1427 1448
e 1427 1449
e 1427 1450
e 1451 1452
e 1451 1453
e 1451 1454
e 1451 1455
e 1451 1456
e 1451 1457
e 1451 1458
e 1451 1459
e 1451 1460
e 1451 1461
e 1451 1462
e 1451 1463
e 1451 1464
e 1451 1465
e 1451 1466
e 1451 1467
e 1451 1468
e 1451 1469
e 1451 1470
e 1451 1471
e 1451 1472
e 1473 1474
e 1473 1475
e 1473 1476
e 1473 1477
e 1473 1478
e 1473 1479
e 1473 1480
e 1473 1481
e 1473 1482
e 1473 1483
e 1473 1484
e 1473 1485
e 1473 1486
e 1473 1487
e 1473 1488
e 1473 1489
e 1473 1490
e 1473 1491
e 1473 1492
e 1473 1493
e 1473 1494
e 1473 1495
e 1473 1496
e 1473 1497
e 1473 1498
e 1473 1499
e 1473 1500
e 1501 1502
e 1501 1503
e 1501 1504
e 1501 1505
e 1501 1506
e 1501 1507
e 1501 1508
e 1501 1509
e 1501 1510
e 1501 1511
e 1501 1512
e 1501 1513
e 1514 1515
e 1514 1516
e 1514 1517
e 1514 1518
e 1514 1519
e 1514 1520
e 1514 1521
e 1514 1522
e 1514 1523
e 1514 1524
e 1514 1525
e 1514 1526
e 1514 1527
e 1514 1528
e 1529 1530
e 1529 1531
e 1529 1532
e 1529 1533
e 1529 1534
e 1529 1535
e 1529 1536
e 1529 1537
e 1529 1538
e 1529 1539
e 1529 1540
e 1529 1541
e 1529 1542
e 1529 1543
e 1529 1544
e 1529 1545
e 1529 1546
e 1547 1548
e 1547 1549
e 1547 1550
e 1547 1551
e 1547 1552
e 1547 1553
e 1547 1554
e 1547 1555
e 1547 1556
e 1547 1557
e 1547 1558
e 1547 1559
